SCIP version 5.0.0 [precision: 8 byte] [memory: block] [mode: optimized] [LP solver: NONE] [GitHash: 3bbd232]
Copyright (C) 2002-2017 Konrad-Zuse-Zentrum fuer Informationstechnik Berlin (ZIB)

External codes: 
  Readline EditLine w  GNU library for command line editing (gnu.org/s/readline)
  CppAD 20160000.1     Algorithmic Differentiation of C++ algorithms developed by B. Bell (www.coin-or.org/CppAD)
  ZLIB 1.2.5           General purpose compression library by J. Gailly and M. Adler (zlib.net)
  GMP 6.1.2            GNU Multiple Precision Arithmetic Library developed by T. Granlund (gmplib.org)

user parameter file <scip.set> not found - using default parameters

read problem <../../Split_data/output/biodeg/6/3_sample_biodeg.logreg>
============

File name	:	../../Split_data/output/biodeg/6/3_sample_biodeg.logreg
Problem name 	:	3_sample_biodeg
Number of data	:	844
Number of var	:	41
The given data has linear dependence
1 sets of column vector are linearly dependent:
{ 19}, 

[dim=1] time: 0.028208
[dim=2] time: 0.05754
[dim=3] time: 0.090186
[dim=4] time: 0.122022
[dim=5] time: 0.153818
[dim=6] time: 0.18202
[dim=7] time: 0.210924
[dim=8] time: 0.241017
[dim=9] time: 0.26929
[dim=10] time: 0.296287
[dim=11] time: 0.323857
[dim=12] time: 0.35453
[dim=13] time: 0.371666
[dim=14] time: 0.398243
[dim=15] time: 0.417339
[dim=16] time: 0.434905
[dim=17] time: 0.451883
[dim=18] time: 0.470547
[dim=19] time: 0.491022
[dim=20] time: 0.509887
[dim=21] time: 0.527975
[dim=22] time: 0.545403
[dim=23] Time of forward = 0.562327sec.
AIC: 513.494
k: 22

[dim=40] time: 0.149478
[dim=39] time: 0.194131
[dim=38] time: 0.231832
[dim=37] time: 0.27801
[dim=36] time: 0.324626
[dim=35] time: 0.372328
[dim=34] time: 0.418522
[dim=33] time: 0.45832
[dim=32] time: 0.501195
[dim=31] time: 0.548781
[dim=30] time: 0.583008
[dim=29] time: 0.62984
[dim=28] time: 0.66033
[dim=27] time: 0.690565
[dim=26] time: 0.717774
[dim=25] time: 0.745822
[dim=24] time: 0.771478
[dim=23] time: 0.797359
[dim=22] Time of backward = 0.820601sec.
AIC: 510.854
k: 23
